Gurobi Optimizer version 9.1.2 build v9.1.2rc0 (linux64)
Thread count: 36 physical cores, 72 logical processors, using up to 32 threads
Optimize a model with 12 rows, 57 columns and 590 nonzeros
Model fingerprint: 0xf32eec78
Model has 47 quadratic constraints
Coefficient statistics:
  Matrix range     [2e-05, 3e+00]
  QMatrix range    [1e+00, 1e+00]
  QLMatrix range   [1e+00, 1e+00]
  Objective range  [8e-03, 7e-01]
  Bounds range     [1e+00, 1e+00]
  RHS range        [1e+00, 1e+00]
Presolve removed 9 rows and 0 columns

Continuous model is non-convex -- solving as a MIP.

Presolve removed 9 rows and 0 columns
Presolve time: 0.00s
Presolved: 189 rows, 57 columns, 443 nonzeros
Presolved model has 47 bilinear constraint(s)
Variable types: 57 continuous, 0 integer (0 binary)

Root relaxation: objective -1.743721e+00, 44 iterations, 0.00 seconds

    Nodes    |    Current Node    |     Objective Bounds      |     Work
 Expl Unexpl |  Obj  Depth IntInf | Incumbent    BestBd   Gap | It/Node Time

     0     0   -1.74372    0   38          -   -1.74372      -     -    0s
H    0     0                       0.6147548   -1.74372   384%     -    0s
     0     0   -1.64739    0    1    0.61475   -1.64739   368%     -    0s
H    0     0                      -1.6450460   -1.64739  0.14%     -    0s
     0     0     cutoff    0        -1.64505   -1.64505  0.00%     -    0s

Cutting planes:
  RLT: 25
  BQP: 3

Explored 1 nodes (76 simplex iterations) in 0.01 seconds
Thread count was 32 (of 72 available processors)

Solution count 2: -1.64505 0.614755 
No other solutions better than -1.64505

Optimal solution found (tolerance 1.00e-04)
Best objective -1.645045978473e+00, best bound -1.645045978473e+00, gap 0.0000%

User-callback calls 77, time in user-callback 0.00 sec
Gurobi Optimizer version 9.1.2 build v9.1.2rc0 (linux64)
Thread count: 36 physical cores, 72 logical processors, using up to 32 threads
Optimize a model with 60 rows, 312 columns and 16100 nonzeros
Model fingerprint: 0xe9df0e85
Model has 262 quadratic constraints
Coefficient statistics:
  Matrix range     [4e-07, 7e+00]
  QMatrix range    [1e+00, 1e+00]
  QLMatrix range   [1e+00, 1e+00]
  Objective range  [3e-03, 1e+00]
  Bounds range     [1e+00, 1e+00]
  RHS range        [1e+00, 1e+00]
Presolve removed 15 rows and 0 columns

Continuous model is non-convex -- solving as a MIP.

Presolve removed 15 rows and 0 columns
Presolve time: 0.01s
Presolved: 1081 rows, 312 columns, 13448 nonzeros
Presolved model has 262 bilinear constraint(s)
Variable types: 312 continuous, 0 integer (0 binary)

Root relaxation: objective -2.092940e+01, 298 iterations, 0.01 seconds

    Nodes    |    Current Node    |     Objective Bounds      |     Work
 Expl Unexpl |  Obj  Depth IntInf | Incumbent    BestBd   Gap | It/Node Time

     0     0  -20.92940    0  156          -  -20.92940      -     -    0s
     0     0  -19.60861    0   86          -  -19.60861      -     -    0s
     0     0  -19.57639    0  119          -  -19.57639      -     -    0s
     0     0  -19.53919    0  114          -  -19.53919      -     -    0s
     0     0  -19.53616    0  114          -  -19.53616      -     -    0s
     0     0  -19.52056    0  114          -  -19.52056      -     -    0s
     0     0  -19.51952    0  114          -  -19.51952      -     -    0s
     0     0  -19.51294    0  115          -  -19.51294      -     -    0s
     0     0  -19.51105    0  115          -  -19.51105      -     -    0s
     0     0  -19.50854    0  115          -  -19.50854      -     -    0s
     0     0  -19.50817    0  115          -  -19.50817      -     -    0s
H    0     0                     -17.5698972  -19.50817  11.0%     -    0s
H    0     0                     -17.5925663  -19.50817  10.9%     -    0s
     0     2  -19.50817    0  115  -17.59257  -19.50817  10.9%     -    0s
* 1183   989              43     -17.5927176  -18.71100  6.36%  80.9    1s
* 1442  1170              58     -17.6821205  -18.71100  5.82%  73.8    2s
* 1443  1170              58     -17.6821220  -18.71100  5.82%  73.7    2s
* 2046  1687              83     -17.6825164  -18.65604  5.51%  64.2    2s
* 2143  1806              73     -18.2470136  -18.65604  2.24%  62.6    2s
* 2287  1691              74     -18.2470534  -18.65604  2.24%  60.9    2s
* 4001  1806              53     -18.2488271  -18.54846  1.64%  56.9    3s
* 4004  1806              53     -18.2489371  -18.54846  1.64%  56.9    3s
* 4005  1806              53     -18.2490341  -18.54846  1.64%  56.8    3s
* 4007  1806              52     -18.2496932  -18.54846  1.64%  56.8    3s
* 4008  1806              52     -18.2496975  -18.54846  1.64%  56.8    3s
* 4544  1876              47     -18.2497280  -18.54846  1.64%  53.9    3s
* 4677  1871              48     -18.2533160  -18.54846  1.62%  53.2    3s
* 4678  1871              48     -18.2533162  -18.54846  1.62%  53.2    3s
* 4893  1871              53     -18.2557697  -18.54846  1.60%  51.9    3s
* 4895  1871              54     -18.2557821  -18.54846  1.60%  51.9    3s
* 5622  1838              48     -18.2561334  -18.54846  1.60%  48.9    3s
* 5624  1838              47     -18.2561334  -18.54846  1.60%  48.9    3s
* 5649  1838              53     -18.2613883  -18.54846  1.57%  48.7    3s
* 5758  1838              61     -18.2754013  -18.54846  1.49%  48.3    3s
* 5759  1838              60     -18.2754062  -18.54846  1.49%  48.3    3s
H 5910   699                     -18.2754064  -18.54846  1.49%  47.7    4s
  7388   515     cutoff   19       -18.27541  -18.54846  1.49%  51.9    5s
* 8012   405              47     -18.2754234  -18.54846  1.49%  52.3    5s
* 8013   405              47     -18.2754269  -18.54846  1.49%  52.3    5s
* 8014   405              46     -18.2754443  -18.54846  1.49%  52.3    5s
* 8868   649              55     -18.2765837  -18.54846  1.49%  51.7    5s
* 9701   821              61     -18.2818873  -18.54846  1.46%  50.6    5s
*10151   898              64     -18.2820282  -18.54846  1.46%  50.0    5s
*10152   898              64     -18.2820539  -18.54846  1.46%  50.0    5s
*10820  1150              60     -18.2846882  -18.54846  1.44%  49.3    6s
*10822  1150              61     -18.2847244  -18.54846  1.44%  49.3    6s
*10826  1150              61     -18.2847790  -18.54846  1.44%  49.3    6s
*10830  1150              62     -18.2848300  -18.54846  1.44%  49.3    6s
*11127  1205              68     -18.2862564  -18.54846  1.43%  48.8    6s
*11128  1205              68     -18.2862606  -18.54846  1.43%  48.8    6s
*11651  1408              77     -18.2866026  -18.54846  1.43%  48.3    6s
*12011  1553              56     -18.2908849  -18.54846  1.41%  47.8    6s
*12013  1553              57     -18.2908895  -18.54846  1.41%  47.8    6s
*12390  1634              57     -18.2908898  -18.54846  1.41%  47.1    6s
*12516  1634              55     -18.2924965  -18.54846  1.40%  46.9    6s
*12517  1634              55     -18.2926067  -18.54846  1.40%  46.9    6s
*12518  1634              54     -18.2928170  -18.54846  1.40%  46.9    6s
*13049  1828              58     -18.2929863  -18.45158  0.87%  46.3    6s
*13114  1828              75     -18.2936361  -18.45158  0.86%  46.2    6s
*13116  1828              76     -18.2936379  -18.45158  0.86%  46.2    6s
*13469  1803              60     -18.2937321  -18.45158  0.86%  45.6    6s
*13967  1874              61     -18.2947572  -18.45158  0.86%  45.0    6s
*13968  1874              61     -18.2947896  -18.45158  0.86%  45.0    6s
*13979  1874              65     -18.2948387  -18.45158  0.86%  45.0    6s
*13980  1874              65     -18.2948500  -18.45158  0.86%  45.0    6s
*15056  1884              50     -18.2949221  -18.39438  0.54%  43.7    6s
*15457  1946              73     -18.3055605  -18.39438  0.49%  43.3    7s
*15459  1946              72     -18.3055767  -18.39438  0.49%  43.3    7s
*16130  1879              64     -18.3076216  -18.37905  0.39%  42.4    7s
*16659  1805              64     -18.3077174  -18.37905  0.39%  41.8    7s
*16660  1805              63     -18.3077518  -18.37905  0.39%  41.8    7s
*16683  1805              67     -18.3079470  -18.37905  0.39%  41.8    7s
*16987  1805              84     -18.3103401  -18.37905  0.38%  41.5    7s
*18267  1852              65     -18.3138079  -18.36307  0.27%  40.1    7s
*18270  1852              66     -18.3138080  -18.36307  0.27%  40.1    7s
*19484  1953              59     -18.3138771  -18.35105  0.20%  39.0    7s
*19813  1953              69     -18.3154061  -18.35105  0.19%  38.5    7s
*19816  1953              69     -18.3154075  -18.35105  0.19%  38.5    7s
*21497  1949              70     -18.3197225  -18.34560  0.14%  37.0    8s
*21874  1949              60     -18.3198540  -18.34560  0.14%  36.6    8s
*23401  1770              79     -18.3209422  -18.33755  0.09%  35.5    8s
*23402  1770              79     -18.3209422  -18.33755  0.09%  35.5    8s
*25324  1747              68     -18.3213339  -18.33353  0.07%  34.0    8s
*26217  1838              70     -18.3221137  -18.33153  0.05%  33.3    8s
*26219  1838              71     -18.3221500  -18.33153  0.05%  33.3    8s
*27402  1691              74     -18.3223658  -18.32938  0.04%  32.3    9s
*27403  1691              74     -18.3223695  -18.32938  0.04%  32.3    9s
*29640  1781              68     -18.3223698  -18.32769  0.03%  30.8    9s
*30553  1845              70     -18.3223844  -18.32604  0.02%  30.2    9s
*30554  1845              70     -18.3223847  -18.32604  0.02%  30.2    9s
*30557  1845              68     -18.3223893  -18.32604  0.02%  30.2    9s
*30559  1845              68     -18.3223894  -18.32604  0.02%  30.2    9s
*31058  1845              62     -18.3224086  -18.32555  0.02%  29.9    9s
*31065  1845              66     -18.3224110  -18.32555  0.02%  29.9    9s
*31066  1845              66     -18.3224110  -18.32555  0.02%  29.9    9s
*31675  1845              71     -18.3225137  -18.32544  0.02%  29.5    9s
*33314  1765              65     -18.3225138  -18.32485  0.01%  28.5    9s
 33385  1701     cutoff   61       -18.32251  -18.32455  0.01%  28.5   10s
*33770  1701              72     -18.3225203  -18.32438  0.01%  28.2   10s
*33772  1701              72     -18.3225203  -18.32438  0.01%  28.2   10s

Explored 35589 nodes (969101 simplex iterations) in 10.12 seconds
Thread count was 32 (of 72 available processors)

Solution count 10: -18.3225 -18.3225 -18.3225 ... -18.3224

Optimal solution found (tolerance 1.00e-04)
Best objective -1.832251770654e+01, best bound -1.832399686094e+01, gap 0.0081%

User-callback calls 72277, time in user-callback 0.01 sec



objective value: -18.322517706535038
objective bound: -18.3239968609436
x_opt: [0.8476845502440844, 0.940841277372858, 0.0, 0.3029844115632973, 0.0, 0.0, 1.0, 0.0, 0.0, 0.0, 1.0, 0.0, 1.0, 1.0, 0.5362680535711438, 1.0, 0.0, 1.0, 0.0, 0.0, 0.0, 0.08614801818645113, 0.0, 0.45555303710720024, 0.0, 0.6884027537278461, 0.0, 1.0, 0.0, 0.0, 1.0, 1.0, 0.0, 0.6171251884586395, 1.0, 1.0, 0.0, 1.0, 0.0, 1.0, 1.0, 0.0, 0.8543400994435425, 0.016659244279219776, 0.09507023391881098, 0.028806203021517186, 0.32264310870923163, 0.5632433873508705, 0.0, 1.7077483953613622e-19]
GUROBI solution time: 10.122720003128052




